Route #1: 36 17 22 10 29 47 15 11 52 45 18 20 6 13 24 19 9 41 44 23 39 51
Route #2: 16 43 27 42 25 8 30 54 38 7 48 5 40 46 26
Route #3: 
Route #4: 2 28 53 49 37 33 50
Route #5: 55 3 21 35 31 32 12 56
Route #6: 34 14 4
Route #7: 1
cost 788.4648105995108
